10 10
185 2 86 6 320 21 234 132 13 1
282 1 3 55 1 2 2 55 586 13
20 3 13 490 2 458 2 6 5 1
1 3 45 9 1 100 1 161 3 676
6 1 1 178 667 92 1 1 52 1
283 2 573 19 4 41 1 1 1 75
14 596 88 1 1 1 2 195 101 1
3 12 5 1 1 101 419 137 91 230
5 324 1 1 2 183 332 4 147 1
201 56 185 240 1 1 6 308 1 1
